Copyright (C) 2013-2015, Filipe Brandao
Build (method = -2)
  #dp: 108182
  Step-3' Graph: 867 vertices and 50147 arcs (0.59s)
  Step-4' Graph: 863 vertices and 50139 arcs (0.61s)
  #V4/#V3 = 1.00
  #A4/#A3 = 1.00
Ready! (0.61s)
Optimize a model with 954 rows, 50140 columns and 148699 nonzeros
Presolve removed 4 rows and 4 columns
Presolve time: 0.23s
Presolved: 950 rows, 50136 columns, 148690 nonzeros
Variable types: 0 continuous, 50136 integer (13110 binary)
Optimize a model with 950 rows, 50136 columns and 148690 nonzeros
Presolved: 950 rows, 50136 columns, 148690 nonzeros

Root barrier log...

Ordering time: 0.01s

Barrier statistics:
 AA' NZ     : 9.554e+04
 Factor NZ  : 2.099e+05 (roughly 20 MBytes of memory)
 Factor Ops : 5.449e+07 (less than 1 second per iteration)
 Threads    : 1

                  Objective                Residual
Iter       Primal          Dual         Primal    Dual     Compl     Time
   0   1.06422875e+05 -1.40946374e+06  3.28e+06 6.46e-02  6.62e+02     0s
   1   3.43293861e+04 -4.14326802e+05  5.30e+05 8.88e-16  1.09e+02     0s
   2   5.67882546e+03 -1.64333216e+05  4.53e+04 1.29e-02  1.05e+01     0s
   3   2.48603618e+03 -8.11283054e+04  5.24e+03 2.30e-03  1.79e+00     0s
   4   2.53346220e+03 -6.20573615e+04  2.14e+03 1.51e-03  9.90e-01     0s
   5   2.30041020e+03 -2.34782504e+04  1.05e+03 2.59e-04  3.83e-01     0s
   6   1.77373468e+03 -1.15309280e+04  5.44e+02 9.33e-15  1.93e-01     0s
   7   1.43415962e+03 -8.09967659e+03  3.69e+02 7.77e-15  1.33e-01     0s
   8   1.10634449e+03 -4.88907217e+03  2.31e+02 6.44e-15  8.12e-02     0s
   9   9.45091854e+02 -3.19577598e+03  1.64e+02 4.88e-15  5.45e-02     0s
  10   8.10552694e+02 -2.39708339e+03  1.19e+02 3.33e-15  4.04e-02     0s
  11   7.70832651e+02 -2.16852275e+03  1.07e+02 3.22e-15  3.66e-02     0s
  12   7.20488627e+02 -1.38156145e+03  9.33e+01 2.11e-15  2.65e-02     0s
  13   7.08224992e+02 -1.21410185e+03  9.08e+01 1.89e-15  2.44e-02     0s
  14   5.81168707e+02 -7.36049866e+02  6.39e+01 1.33e-15  1.64e-02     0s
  15   5.27738370e+02 -6.38187347e+02  5.78e+01 1.11e-15  1.44e-02     0s
  16   4.50339346e+02 -5.81671986e+02  4.69e+01 1.33e-15  1.25e-02     0s
  17   4.01276320e+02 -4.19510434e+02  4.05e+01 9.99e-16  9.91e-03     0s
  18   3.68697106e+02 -3.83698165e+02  3.63e+01 8.13e-16  9.05e-03     0s
  19   3.64887190e+02 -2.97094622e+02  3.57e+01 8.38e-16  8.03e-03     1s
  20   3.43281306e+02 -2.86732966e+02  3.31e+01 8.73e-16  7.62e-03     1s
  21   2.61518416e+02 -1.84376983e+02  2.29e+01 6.73e-16  5.27e-03     1s
  22   2.51442083e+02 -1.71884489e+02  2.18e+01 7.77e-16  5.00e-03     1s
  23   2.33107781e+02 -1.36046648e+02  2.00e+01 6.54e-16  4.37e-03     1s
  24   2.32055432e+02 -1.33049844e+02  1.99e+01 7.06e-16  4.33e-03     1s
  25   2.26110900e+02 -1.20940282e+02  1.92e+01 8.69e-16  4.11e-03     1s
  26   2.10521197e+02 -1.20900377e+02  1.77e+01 1.07e-15  3.90e-03     1s
  27   1.90053633e+02 -9.14400949e+01  1.55e+01 7.34e-16  3.31e-03     1s
  28   1.82551434e+02 -8.96103683e+01  1.47e+01 7.73e-16  3.19e-03     1s
  29   1.62773061e+02 -8.16717086e+01  1.32e+01 7.64e-16  2.86e-03     1s
  30   1.45717826e+02 -6.06291926e+01  1.16e+01 6.77e-16  2.41e-03     1s
  31   1.05553859e+02 -4.58598922e+01  8.26e+00 6.12e-16  1.75e-03     1s
  32   6.30866121e+01 -2.48954186e+01  4.73e+00 4.88e-16  1.00e-03     1s
  33   4.67891783e+01 -1.70274266e+01  3.33e+00 5.36e-16  7.15e-04     1s
  34   3.72027493e+01 -9.79678124e+00  2.44e+00 4.67e-16  5.20e-04     1s
  35   3.39167082e+01 -5.09078706e+00  2.14e+00 5.30e-16  4.29e-04     1s
  36   2.62565055e+01  7.69906371e-01  1.25e+00 5.45e-16  2.73e-04     1s
  37   2.32766447e+01  5.84890848e+00  7.41e-01 5.74e-16  1.83e-04     1s
  38   2.35295455e+01  1.06972630e+01  5.25e-01 5.22e-16  1.33e-04     1s
  39   2.30163176e+01  1.34864068e+01  4.03e-01 4.61e-16  9.78e-05     1s
  40   2.23815278e+01  1.60545787e+01  2.67e-01 5.05e-16  6.44e-05     1s
  41   2.19662247e+01  1.70366693e+01  1.65e-01 5.58e-16  4.99e-05     1s
  42   2.15503206e+01  1.84564042e+01  6.62e-02 5.31e-16  3.11e-05     1s
  43   2.13453477e+01  1.98199981e+01  2.22e-02 5.19e-16  1.53e-05     1s
  44   2.12704813e+01  2.06600597e+01  8.62e-03 4.46e-16  6.10e-06     1s
  45   2.12410338e+01  2.08949866e+01  4.55e-03 4.11e-16  3.46e-06     1s
  46   2.12295384e+01  2.10492180e+01  3.08e-03 4.27e-16  1.80e-06     1s
  47   2.12188217e+01  2.11421927e+01  1.71e-03 4.36e-16  7.66e-07     1s
  48   2.12051817e+01  2.12015477e+01  6.26e-06 3.96e-16  3.62e-08     1s
  49   2.12050017e+01  2.12049804e+01  1.36e-13 4.33e-16  2.12e-10     1s
  50   2.12050000e+01  2.12050000e+01  1.14e-13 4.44e-16  2.12e-13     1s

Barrier solved model in 50 iterations and 1.21 seconds
Optimal objective 2.12050000e+01


Root relaxation: objective 2.120500e+01, 42344 iterations, 2.52 seconds
Total elapsed time = 6.67s
Total elapsed time = 11.65s

    Nodes    |    Current Node    |     Objective Bounds      |     Work
 Expl Unexpl |  Obj  Depth IntInf | Incumbent    BestBd   Gap | It/Node Time

     0     0   21.20500    0  143          -   21.20500     -      -   16s
H    0     0                      23.0000000   21.20500  7.80%     -   16s
H    0     0                      22.0000000   21.20500  3.61%     -   18s

Explored 0 nodes (78923 simplex iterations) in 18.17 seconds
Thread count was 1 (of 4 available processors)

Optimal solution found (tolerance 0.00e+00)
Best objective 2.200000000000e+01, best bound 2.200000000000e+01, gap 0.0%
Preprocessing time: 0.69 seconds
Gurobi run time: 18.17 seconds
Total run time: 18.86 seconds
Objective: 22
Solution:
1 x [i=1, i=28, i=37, i=43, i=50, i=56, i=66, i=79, i=83]
1 x [i=2, i=20, i=20, i=22, i=31, i=63, i=69, i=89]
1 x [i=3, i=5, i=10, i=28, i=32, i=67, i=81, i=84, i=85]
1 x [i=3, i=5, i=14, i=21, i=54, i=71, i=78]
1 x [i=4, i=29, i=34, i=36, i=37, i=42, i=60, i=63, i=86]
1 x [i=6, i=16, i=22, i=41, i=44, i=51, i=65, i=66, i=77]
1 x [i=6, i=20, i=24, i=41, i=44, i=51, i=61, i=65, i=77]
1 x [i=7, i=11, i=15, i=30, i=37, i=40, i=50, i=60]
1 x [i=7, i=15, i=30, i=35, i=35, i=40, i=60, i=88, i=88]
1 x [i=8, i=8, i=9, i=27, i=67, i=75, i=81, i=82, i=85, i=90]
1 x [i=10, i=15, i=17, i=17, i=30, i=45, i=46, i=72]
1 x [i=10, i=16, i=47, i=49, i=49, i=55, i=58, i=88]
1 x [i=10, i=27, i=35, i=36, i=36, i=52, i=72, i=87]
1 x [i=11, i=12, i=36, i=48, i=48, i=54, i=61, i=78]
1 x [i=13, i=26, i=43, i=55, i=69, i=71, i=72, i=73, i=74, i=82, i=91]
2 x [i=18, i=23, i=38, i=39, i=50, i=64, i=70, i=74, i=76, i=78]
1 x [i=18, i=26, i=30, i=50, i=50, i=59, i=61, i=66, i=82, i=88]
1 x [i=19, i=25, i=29, i=32, i=48, i=64, i=68, i=76, i=81, i=90]
1 x [i=22, i=28, i=31, i=32, i=60, i=62, i=69, i=75, i=79, i=91]
1 x [i=23, i=49, i=53, i=54, i=57, i=57, i=64, i=66, i=71, i=80, i=89]
1 x [i=27, i=30, i=33, i=34, i=59, i=63, i=64, i=79, i=90]
